439,230
850,237
663,288
580,93
921,528
885,6
561,36
1166,249
491,780
729,441
690,378
769,392
399,18
356,457
894,514
629,334
927,745
657,389
994,507
464,-21
888,438
732,81
652,410
602,-97
951,406
710,402
927,745
937,489
829,862
464,-21
504,753
909,480
1045,142
597,490
646,358
601,366
745,207
385,110
918,369
